width = 21;

n_circuits = 15;

circuit_x = array1d(1..15, [3, 3, 3, 3, 3, 3, 3, 3, 3, 3, 4, 4, 4, 5, 5]);

circuit_y = array1d(1..15, [3, 4, 5, 6, 7, 8, 9, 10, 14, 18, 4, 6, 11, 6, 15]);

opt_height = 21;

max_y = 18;

